decision_x1=[0,4];
decision_x2=[0,4];
decision_x3=[0,4];
decision_x4=[0,4];
decision_x5=[0,4];
decision_x6=[0,4];
decision_x7=[0,4];
decision_x8=[0,4];
decision_x9=[0,4];
decision_x10=[0,4];
decision_x11=[0,4];
decision_x12=[0,4];
decision_x13=[0,4];
decision_x14=[0,4];
random_y1=[0,4];
random_y2=[0,4];
random_y3=[0,4];
random_y4=[0,4];
random_y5=[0,4];
random_y6=[0,4];
random_y7=[0,4];
constraint_x4_x2=[
0,1,7.8|
0,2,9|
0,3,7.1|
0,4,5.2|
1,0,6.4|
1,2,3|
1,3,8.9|
1,4,4|
2,0,10|
2,1,5.7|
2,3,8.1|
2,4,9.8|
3,0,5.7|
3,1,7.2|
3,2,1.8|
3,4,4.6|
4,0,3.6|
4,1,0.6|
4,2,1|
4,3,7.5|
];
constraint_x5_x1=[
0,1,5.1|
0,2,9.9|
0,3,9|
0,4,3.9|
1,0,2.6|
1,2,1.8|
1,3,0.068|
1,4,8|
2,0,4.3|
2,1,7.7|
2,3,5.2|
2,4,3.7|
3,0,9.7|
3,1,3.8|
3,2,1.4|
3,4,3.1|
4,0,0.072|
4,1,1.3|
4,2,6.1|
4,3,2.7|
];
constraint_x5_x3=[
0,1,6.2|
0,2,1.7|
0,3,1.9|
0,4,6.1|
1,0,8.9|
1,2,4.6|
1,3,5.7|
1,4,3.3|
2,0,7.5|
2,1,0.58|
2,3,0.44|
2,4,4.3|
3,0,1.6|
3,1,5.4|
3,2,3.3|
3,4,2.3|
4,0,6.4|
4,1,1.7|
4,2,1.2|
4,3,0.98|
];
constraint_x5_x4=[
0,1,0.77|
0,2,2.4|
0,3,8.8|
0,4,8.4|
1,0,0.82|
1,2,5.8|
1,3,2.7|
1,4,1.4|
2,0,1.2|
2,1,8.2|
2,3,1|
2,4,2.2|
3,0,7.7|
3,1,9.1|
3,2,1.2|
3,4,5.8|
4,0,7.8|
4,1,0.34|
4,2,2|
4,3,6.8|
];
constraint_x6_x1=[
0,1,5.9|
0,2,9.4|
0,3,2|
0,4,7.8|
1,0,6.5|
1,2,9.7|
1,3,0.5|
1,4,9.7|
2,0,6.6|
2,1,4|
2,3,5.6|
2,4,7.4|
3,0,9.9|
3,1,2.8|
3,2,3.5|
3,4,4.2|
4,0,6.3|
4,1,0.4|
4,2,7.9|
4,3,9.7|
];
constraint_x6_x2=[
0,1,5.9|
0,2,1.9|
0,3,1.2|
0,4,3.5|
1,0,5.5|
1,2,5.7|
1,3,7.1|
1,4,3|
2,0,5.9|
2,1,4.2|
2,3,6.7|
2,4,5.1|
3,0,7.7|
3,1,8.8|
3,2,5.1|
3,4,0.55|
4,0,4.9|
4,1,5.3|
4,2,3.9|
4,3,1.5|
];
constraint_x6_x4=[
0,1,3.6|
0,2,1.4|
0,3,9.6|
0,4,6.6|
1,0,7.4|
1,2,1.4|
1,3,1.5|
1,4,3.1|
2,0,3.2|
2,1,2.5|
2,3,6.4|
2,4,5.3|
3,0,8.3|
3,1,0.46|
3,2,2.5|
3,4,6.7|
4,0,5.3|
4,1,5.3|
4,2,4.2|
4,3,3.3|
];
constraint_x6_x5=[
0,1,9.7|
0,2,5.6|
0,3,3.4|
0,4,3.8|
1,0,9.6|
1,2,6.6|
1,3,5.4|
1,4,7.3|
2,0,8.1|
2,1,2.8|
2,3,6.5|
2,4,0.58|
3,0,2.2|
3,1,1.2|
3,2,6.2|
3,4,0.3|
4,0,3.7|
4,1,0.49|
4,2,5.9|
4,3,3.5|
];
constraint_x7_x1=[
0,1,1.6|
0,2,3|
0,3,6.1|
0,4,1.6|
1,0,6.8|
1,2,7.1|
1,3,0.71|
1,4,3.9|
2,0,6.5|
2,1,4.9|
2,3,4.6|
2,4,8.4|
3,0,6.9|
3,1,9.6|
3,2,0.18|
3,4,8.1|
4,0,3.2|
4,1,7.6|
4,2,6.4|
4,3,3.2|
];
constraint_x7_x3=[
0,1,5.6|
0,2,2.8|
0,3,0.72|
0,4,0.31|
1,0,2.8|
1,2,5|
1,3,1.4|
1,4,2.8|
2,0,5.6|
2,1,1.4|
2,3,1.7|
2,4,5.3|
3,0,3.8|
3,1,5.8|
3,2,0.24|
3,4,1|
4,0,8.9|
4,1,9.6|
4,2,8.3|
4,3,4.7|
];
constraint_x7_x6=[
0,1,1.5|
0,2,8|
0,3,4.1|
0,4,3.1|
1,0,6.4|
1,2,5.8|
1,3,8.7|
1,4,3.9|
2,0,2|
2,1,4.6|
2,3,4.6|
2,4,7.2|
3,0,0.22|
3,1,6.1|
3,2,7|
3,4,9.2|
4,0,9.9|
4,1,6.3|
4,2,3.4|
4,3,9.6|
];
constraint_x8_x2=[
0,1,4.9|
0,2,1.9|
0,3,5.7|
0,4,9.4|
1,0,2.6|
1,2,5.8|
1,3,4.2|
1,4,0.12|
2,0,9.2|
2,1,6|
2,3,1.6|
2,4,3.9|
3,0,1|
3,1,6.3|
3,2,0.24|
3,4,6.1|
4,0,1.6|
4,1,5|
4,2,3.4|
4,3,2.9|
];
constraint_x8_x3=[
0,1,8|
0,2,2.5|
0,3,5.4|
0,4,2.4|
1,0,0.12|
1,2,5.6|
1,3,2.5|
1,4,6.8|
2,0,5.5|
2,1,10|
2,3,1.7|
2,4,5.6|
3,0,1|
3,1,4.8|
3,2,2.4|
3,4,5.8|
4,0,3.9|
4,1,3.5|
4,2,4.8|
4,3,1.4|
];
constraint_x8_x6=[
0,1,4|
0,2,7.8|
0,3,2.9|
0,4,2.6|
1,0,2.8|
1,2,8.9|
1,3,8.3|
1,4,7|
2,0,0.31|
2,1,7.3|
2,3,4.4|
2,4,4.5|
3,0,3.8|
3,1,7.8|
3,2,3|
3,4,5.5|
4,0,5.3|
4,1,9.8|
4,2,5.4|
4,3,4.6|
];
constraint_x9_x1=[
0,1,5.4|
0,2,6.9|
0,3,8.9|
0,4,9|
1,0,0.32|
1,2,0.32|
1,3,9.5|
1,4,7.5|
2,0,3.5|
2,1,9.7|
2,3,1.6|
2,4,2.4|
3,0,5.7|
3,1,4.6|
3,2,3.5|
3,4,0.84|
4,0,2.9|
4,1,3.1|
4,2,4.7|
4,3,2.5|
];
constraint_x9_x2=[
0,1,1.7|
0,2,6.4|
0,3,2.2|
0,4,2.4|
1,0,2.8|
1,2,6|
1,3,3.3|
1,4,7.5|
2,0,3.1|
2,1,7.4|
2,3,3.1|
2,4,0.29|
3,0,1.3|
3,1,3.7|
3,2,2.8|
3,4,0.31|
4,0,4.7|
4,1,0.54|
4,2,6.4|
4,3,8.3|
];
constraint_x9_x3=[
0,1,8|
0,2,9.6|
0,3,9.3|
0,4,0.85|
1,0,2.9|
1,2,6.6|
1,3,9.2|
1,4,3.1|
2,0,8.2|
2,1,0.15|
2,3,7.1|
2,4,3.1|
3,0,0.14|
3,1,3.6|
3,2,7.5|
3,4,0.043|
4,0,6.7|
4,1,6.7|
4,2,9.8|
4,3,2|
];
constraint_x9_x4=[
0,1,2.4|
0,2,8.4|
0,3,0.031|
0,4,0.92|
1,0,9.6|
1,2,5|
1,3,0.75|
1,4,10|
2,0,9.9|
2,1,1.4|
2,3,0.49|
2,4,5.6|
3,0,9.3|
3,1,9.4|
3,2,7.9|
3,4,8.2|
4,0,1.2|
4,1,8.4|
4,2,4.9|
4,3,3.9|
];
constraint_x9_x5=[
0,1,1|
0,2,4.4|
0,3,4.7|
0,4,1.6|
1,0,1.2|
1,2,2.7|
1,3,2.3|
1,4,6.3|
2,0,2.4|
2,1,9.3|
2,3,8.7|
2,4,0.44|
3,0,3.6|
3,1,9.4|
3,2,0.5|
3,4,9.9|
4,0,9.1|
4,1,1.6|
4,2,2.9|
4,3,1.9|
];
constraint_x9_x6=[
0,1,6.5|
0,2,2|
0,3,6.4|
0,4,3.6|
1,0,4.7|
1,2,7.9|
1,3,7.6|
1,4,7.5|
2,0,6.9|
2,1,5.9|
2,3,7.4|
2,4,6.5|
3,0,3.1|
3,1,1.1|
3,2,9.7|
3,4,7.6|
4,0,9.4|
4,1,8.3|
4,2,5|
4,3,2.7|
];
constraint_x9_x7=[
0,1,7.5|
0,2,5.9|
0,3,7.2|
0,4,9.6|
1,0,4.5|
1,2,6.7|
1,3,4.9|
1,4,1.1|
2,0,0.8|
2,1,7.3|
2,3,7.3|
2,4,6.8|
3,0,6.3|
3,1,9.8|
3,2,7.1|
3,4,5.3|
4,0,0.078|
4,1,4.2|
4,2,5.1|
4,3,7.8|
];
constraint_x10_x2=[
0,1,0.35|
0,2,6.6|
0,3,9.4|
0,4,9.4|
1,0,8.8|
1,2,10|
1,3,6.4|
1,4,6.1|
2,0,1.6|
2,1,0.057|
2,3,1.8|
2,4,8.3|
3,0,9.3|
3,1,3.2|
3,2,6.8|
3,4,5.5|
4,0,0.26|
4,1,2|
4,2,5.5|
4,3,9.3|
];
constraint_x10_x3=[
0,1,0.036|
0,2,3.5|
0,3,2.6|
0,4,5.4|
1,0,2.6|
1,2,6.1|
1,3,3.7|
1,4,8.6|
2,0,1|
2,1,4.7|
2,3,6.8|
2,4,2.4|
3,0,0.48|
3,1,8.3|
3,2,1.8|
3,4,9.4|
4,0,8.6|
4,1,6.9|
4,2,8.2|
4,3,9.6|
];
constraint_x10_x4=[
0,1,5.3|
0,2,9.3|
0,3,2.5|
0,4,5.2|
1,0,6.7|
1,2,1.3|
1,3,7.8|
1,4,6.8|
2,0,9.6|
2,1,0.79|
2,3,8.5|
2,4,6.4|
3,0,0.86|
3,1,8.1|
3,2,0.37|
3,4,8.3|
4,0,2.3|
4,1,3.5|
4,2,1.5|
4,3,3.2|
];
constraint_x10_x5=[
0,1,1.2|
0,2,2.7|
0,3,8.2|
0,4,6.3|
1,0,8.7|
1,2,9|
1,3,1.7|
1,4,4.5|
2,0,2.7|
2,1,0.34|
2,3,7|
2,4,4.2|
3,0,9.9|
3,1,6.6|
3,2,8.6|
3,4,3.2|
4,0,5.7|
4,1,0.16|
4,2,6.5|
4,3,7.1|
];
constraint_x10_x7=[
0,1,5.1|
0,2,1.3|
0,3,9.2|
0,4,8.6|
1,0,6.1|
1,2,1.6|
1,3,5|
1,4,5.6|
2,0,2.6|
2,1,4.9|
2,3,5.3|
2,4,7.5|
3,0,7.6|
3,1,9|
3,2,0.23|
3,4,4.1|
4,0,5.8|
4,1,2.2|
4,2,3.3|
4,3,8.5|
];
constraint_x11_x1=[
0,1,7.2|
0,2,3.4|
0,3,1.7|
0,4,9.7|
1,0,6.6|
1,2,6.6|
1,3,4.8|
1,4,2|
2,0,5.7|
2,1,4.5|
2,3,0.98|
2,4,4.5|
3,0,9.9|
3,1,6.8|
3,2,1.5|
3,4,9.5|
4,0,8.5|
4,1,6.1|
4,2,6.7|
4,3,4.7|
];
constraint_x11_x5=[
0,1,1.5|
0,2,5.2|
0,3,1.7|
0,4,5.8|
1,0,7.1|
1,2,1.4|
1,3,4.2|
1,4,2.5|
2,0,2.7|
2,1,7.4|
2,3,8.6|
2,4,6.8|
3,0,6.5|
3,1,0.99|
3,2,4.3|
3,4,0.73|
4,0,1.7|
4,1,4.1|
4,2,9.6|
4,3,0.59|
];
constraint_x11_x6=[
0,1,6.2|
0,2,8.4|
0,3,6.4|
0,4,1.5|
1,0,0.9|
1,2,0.55|
1,3,5.3|
1,4,0.094|
2,0,5.5|
2,1,2.3|
2,3,7.6|
2,4,8.4|
3,0,2.3|
3,1,7.7|
3,2,5.2|
3,4,7.9|
4,0,7.3|
4,1,1.4|
4,2,4.2|
4,3,1.1|
];
constraint_x11_x7=[
0,1,6.6|
0,2,0.44|
0,3,2|
0,4,7.3|
1,0,7.6|
1,2,9.4|
1,3,9.2|
1,4,7.4|
2,0,9.2|
2,1,1.7|
2,3,3.7|
2,4,1.3|
3,0,9|
3,1,0.3|
3,2,6.8|
3,4,8.6|
4,0,2.1|
4,1,3.8|
4,2,2|
4,3,5.5|
];
constraint_x11_x8=[
0,1,9.8|
0,2,3.4|
0,3,8|
0,4,6.7|
1,0,7.4|
1,2,3.9|
1,3,9.4|
1,4,3.8|
2,0,5.4|
2,1,1.9|
2,3,8.4|
2,4,7.6|
3,0,5.3|
3,1,0.61|
3,2,0.83|
3,4,7.5|
4,0,0.049|
4,1,9|
4,2,5|
4,3,3.2|
];
constraint_x12_x7=[
0,1,2.5|
0,2,5.4|
0,3,2.8|
0,4,9.1|
1,0,2.5|
1,2,1.6|
1,3,0.24|
1,4,0.29|
2,0,1|
2,1,4.3|
2,3,8.1|
2,4,6.5|
3,0,8.4|
3,1,9.4|
3,2,3.7|
3,4,7.2|
4,0,9.9|
4,1,9.4|
4,2,2.8|
4,3,1.9|
];
constraint_x12_x8=[
0,1,1.6|
0,2,9.7|
0,3,5.3|
0,4,0.53|
1,0,5|
1,2,9.5|
1,3,2.1|
1,4,1.5|
2,0,4.8|
2,1,5|
2,3,5.4|
2,4,8.6|
3,0,6.2|
3,1,3.3|
3,2,6.7|
3,4,4.3|
4,0,3.1|
4,1,5.2|
4,2,1.7|
4,3,9.1|
];
constraint_x12_x10=[
0,1,2|
0,2,1.6|
0,3,3.6|
0,4,8.1|
1,0,0.85|
1,2,5.9|
1,3,7.6|
1,4,7.6|
2,0,4.9|
2,1,3.8|
2,3,2.5|
2,4,0.027|
3,0,0.87|
3,1,0.42|
3,2,1.6|
3,4,4.1|
4,0,0.91|
4,1,5|
4,2,4.3|
4,3,0.083|
];
constraint_x13_x1=[
0,1,1.7|
0,2,2.7|
0,3,3.7|
0,4,8.5|
1,0,9.3|
1,2,0.89|
1,3,7.4|
1,4,0.28|
2,0,4.1|
2,1,1.1|
2,3,4.6|
2,4,5.6|
3,0,6.9|
3,1,7.5|
3,2,8.1|
3,4,9|
4,0,6.6|
4,1,2|
4,2,3.7|
4,3,0.95|
];
constraint_x13_x2=[
0,1,5.8|
0,2,1|
0,3,7.5|
0,4,10|
1,0,8.3|
1,2,7.2|
1,3,1.2|
1,4,4.1|
2,0,4.2|
2,1,5.5|
2,3,5.5|
2,4,0.28|
3,0,1.4|
3,1,2.6|
3,2,6.7|
3,4,5.6|
4,0,5.2|
4,1,5.8|
4,2,0.19|
4,3,2.5|
];
constraint_x13_x4=[
0,1,8.6|
0,2,5.9|
0,3,4.6|
0,4,7.8|
1,0,2.7|
1,2,1.6|
1,3,0.19|
1,4,4.8|
2,0,6.7|
2,1,0.15|
2,3,0.22|
2,4,5.8|
3,0,8.2|
3,1,9.9|
3,2,0.084|
3,4,0.8|
4,0,6.5|
4,1,6.4|
4,2,2.6|
4,3,4.1|
];
constraint_x13_x6=[
0,1,9.1|
0,2,1.3|
0,3,0.87|
0,4,1.9|
1,0,3.1|
1,2,9.5|
1,3,5.7|
1,4,5.8|
2,0,1.8|
2,1,5.6|
2,3,5.6|
2,4,9.9|
3,0,9.9|
3,1,8.1|
3,2,4.5|
3,4,8.5|
4,0,4.1|
4,1,8.2|
4,2,6.7|
4,3,0.13|
];
constraint_x13_x8=[
0,1,5.5|
0,2,9.2|
0,3,9.8|
0,4,6.7|
1,0,4|
1,2,3|
1,3,1.2|
1,4,0.69|
2,0,4.9|
2,1,3.2|
2,3,8.1|
2,4,3.1|
3,0,7.2|
3,1,5.7|
3,2,3.7|
3,4,9.7|
4,0,4.4|
4,1,0.29|
4,2,9.2|
4,3,7.3|
];
constraint_x13_x9=[
0,1,2.1|
0,2,3.7|
0,3,2.2|
0,4,1.5|
1,0,8.3|
1,2,5|
1,3,9.6|
1,4,9.3|
2,0,1.5|
2,1,4.8|
2,3,1.6|
2,4,7.2|
3,0,3.2|
3,1,3.4|
3,2,6.9|
3,4,4.7|
4,0,1.4|
4,1,4.9|
4,2,9|
4,3,5|
];
constraint_x13_x10=[
0,1,4.8|
0,2,0.93|
0,3,0.57|
0,4,3.7|
1,0,7.8|
1,2,4.5|
1,3,0.26|
1,4,3.1|
2,0,7.7|
2,1,9.3|
2,3,5|
2,4,1.4|
3,0,4.7|
3,1,2.3|
3,2,6.1|
3,4,4.3|
4,0,4.9|
4,1,5.2|
4,2,8|
4,3,4.1|
];
constraint_x14_x3=[
0,1,1.5|
0,2,1.7|
0,3,1.7|
0,4,7|
1,0,9|
1,2,9.2|
1,3,7.4|
1,4,3.3|
2,0,4.2|
2,1,4.7|
2,3,5.9|
2,4,4.1|
3,0,0.68|
3,1,5.2|
3,2,7.7|
3,4,2.6|
4,0,9.1|
4,1,8.5|
4,2,10|
4,3,2.8|
];
constraint_x14_x4=[
0,1,4.4|
0,2,4.1|
0,3,0.25|
0,4,4.9|
1,0,2.8|
1,2,6.3|
1,3,0.37|
1,4,7.6|
2,0,2.1|
2,1,0.68|
2,3,0.91|
2,4,5.1|
3,0,5.9|
3,1,8.3|
3,2,4.8|
3,4,8.9|
4,0,0.71|
4,1,5.3|
4,2,5.7|
4,3,7.5|
];
constraint_x14_x5=[
0,1,5.5|
0,2,7.2|
0,3,1.9|
0,4,1.7|
1,0,9.9|
1,2,1.2|
1,3,3.2|
1,4,8.2|
2,0,5.1|
2,1,3|
2,3,2.5|
2,4,2.4|
3,0,1.1|
3,1,8.1|
3,2,9.3|
3,4,5.2|
4,0,9.2|
4,1,5.4|
4,2,4.4|
4,3,6.9|
];
constraint_x14_x7=[
0,1,8.6|
0,2,8|
0,3,0.091|
0,4,1|
1,0,4.4|
1,2,7.3|
1,3,5.8|
1,4,7.1|
2,0,2.5|
2,1,6.9|
2,3,3.3|
2,4,3.5|
3,0,2|
3,1,0.093|
3,2,2.5|
3,4,5.6|
4,0,1.8|
4,1,9.6|
4,2,8|
4,3,2|
];
constraint_x14_x12=[
0,1,0.94|
0,2,7.3|
0,3,4.4|
0,4,10|
1,0,3.4|
1,2,8.4|
1,3,6.3|
1,4,5.2|
2,0,8.6|
2,1,6.3|
2,3,1.7|
2,4,8.8|
3,0,1.1|
3,1,7.1|
3,2,8.8|
3,4,0.47|
4,0,9.2|
4,1,4.1|
4,2,4.7|
4,3,0.95|
];
constraint_x1_y1=[
0,0,2.8|
0,1,1.2|
0,2,6.6|
0,3,7.5|
0,4,2.8|
1,0,3.3|
1,1,3.9|
1,2,6.6|
1,3,3.5|
1,4,6.2|
2,0,5.1|
2,1,9.9|
2,2,2.2|
2,3,4.5|
2,4,1.6|
3,0,4.5|
3,1,2.5|
3,2,4.5|
3,3,5.9|
3,4,7.2|
4,0,4.9|
4,1,8.6|
4,2,5.9|
4,3,0.91|
4,4,7.3|
];
constraint_x2_y2=[
0,0,8.4|
0,1,8|
0,2,8|
0,3,3.8|
0,4,0.91|
1,0,0.13|
1,1,7.9|
1,2,4.1|
1,3,7.1|
1,4,0.36|
2,0,0.22|
2,1,0.16|
2,2,7|
2,3,4.1|
2,4,3.2|
3,0,3|
3,1,6.1|
3,2,9.3|
3,3,10|
3,4,5.1|
4,0,3.7|
4,1,5.4|
4,2,0.3|
4,3,8.4|
4,4,5.1|
];
constraint_x3_y3=[
0,0,0.95|
0,1,2.7|
0,2,6.5|
0,3,4.3|
0,4,7.2|
1,0,4.7|
1,1,9.1|
1,2,0.92|
1,3,4.4|
1,4,6.3|
2,0,1.6|
2,1,2.3|
2,2,6.5|
2,3,6.6|
2,4,0.1|
3,0,5.4|
3,1,7.8|
3,2,9.2|
3,3,3.6|
3,4,0.27|
4,0,1.3|
4,1,6.5|
4,2,4.6|
4,3,6.7|
4,4,6.1|
];
constraint_x4_y4=[
0,0,4.6|
0,1,5.2|
0,2,4.1|
0,3,9.4|
0,4,4.9|
1,0,9.7|
1,1,9.5|
1,2,5.1|
1,3,0.097|
1,4,5.8|
2,0,4.7|
2,1,4.7|
2,2,2.1|
2,3,0.19|
2,4,6.5|
3,0,4.2|
3,1,9.3|
3,2,2.3|
3,3,3.2|
3,4,0.32|
4,0,9.6|
4,1,7.8|
4,2,9.2|
4,3,8.6|
4,4,6|
];
constraint_x5_y5=[
0,0,8.2|
0,1,9|
0,2,9.2|
0,3,5.4|
0,4,2.8|
1,0,7.1|
1,1,0.56|
1,2,7.4|
1,3,5.2|
1,4,4.5|
2,0,7.4|
2,1,0.13|
2,2,8.5|
2,3,0.42|
2,4,0.15|
3,0,6.8|
3,1,2.3|
3,2,7.8|
3,3,8.5|
3,4,4|
4,0,9.8|
4,1,0.66|
4,2,9.2|
4,3,1.8|
4,4,4.1|
];
constraint_x6_y6=[
0,0,6.5|
0,1,3.5|
0,2,1.4|
0,3,7.9|
0,4,7.3|
1,0,0.88|
1,1,8.7|
1,2,3.1|
1,3,10|
1,4,10|
2,0,2.2|
2,1,9|
2,2,4.9|
2,3,8.8|
2,4,4.7|
3,0,1.3|
3,1,1.7|
3,2,9.1|
3,3,5.5|
3,4,8.5|
4,0,2.6|
4,1,4.5|
4,2,3.2|
4,3,5.1|
4,4,5|
];
constraint_x7_y7=[
0,0,2|
0,1,5.2|
0,2,6.7|
0,3,6.7|
0,4,9.5|
1,0,2.7|
1,1,6.2|
1,2,9.5|
1,3,8.6|
1,4,4.9|
2,0,4.3|
2,1,6.7|
2,2,7.5|
2,3,1.4|
2,4,0.0093|
3,0,0.032|
3,1,0.45|
3,2,9.7|
3,3,7.6|
3,4,7.6|
4,0,3.7|
4,1,0.16|
4,2,0.41|
4,3,7.8|
4,4,2.2|
];
initial_distribution_y1=[0.27,0.15,0.18,0.2,0.21];
initial_distribution_y2=[0.2,0.39,0.18,0.091,0.14];
initial_distribution_y3=[0.17,0.054,0.31,0.098,0.37];
initial_distribution_y4=[0.29,0.09,0.25,0.062,0.31];
initial_distribution_y5=[0.52,0.16,0.022,0.15,0.14];
initial_distribution_y6=[0.073,0.48,0.32,0.012,0.11];
initial_distribution_y7=[0.046,0.34,0.3,0.066,0.25];
transition_y1=[
0.48,0.22,0.024,0.19,0.083|
0.15,0.23,0.14,0.24,0.25|
0.33,0.055,0.4,0.093,0.12|
0.14,0.29,0.19,0.049,0.33|
0.18,0.013,0.59,0.15,0.066|
];
transition_y2=[
0.072,0.35,0.34,0.18,0.055|
0.28,0.27,0.15,0.035,0.26|
0.36,0.4,0.067,0.054,0.11|
0.25,0.21,0.22,0.21,0.11|
0.068,0.4,0.05,0.25,0.23|
];
transition_y3=[
0.37,0.28,0.12,0.089,0.15|
0.2,0.039,0.1,0.23,0.42|
0.24,0.31,0.12,0.25,0.063|
0.074,0.034,0.5,0.1,0.29|
0.11,0.44,0.33,0.04,0.083|
];
transition_y4=[
0.29,0.17,0.27,0.15,0.12|
0.22,0.25,0.017,0.36,0.16|
0.039,0.23,0.26,0.15,0.32|
0.13,0.33,0.31,0.13,0.11|
0.24,0.077,0.3,0.3,0.075|
];
transition_y5=[
0.097,0.15,0.33,0.12,0.3|
0.35,0.062,0.2,0.33,0.063|
0.033,0.2,0.21,0.44,0.11|
0.15,0.4,0.019,0.19,0.24|
0.29,0.013,0.25,0.3,0.14|
];
transition_y6=[
0.14,0.27,0.3,0.059,0.24|
0.19,0.3,0.15,0.21,0.15|
0.24,0.22,0.088,0.25,0.21|
0.11,0.34,0.38,0.022,0.15|
0.19,0.25,0.037,0.43,0.093|
];
transition_y7=[
0.17,0.15,0.24,0.23,0.21|
0.19,0.2,0.28,0.21,0.12|
0.21,0.11,0.29,0.36,0.033|
0.29,0.23,0.15,0.14,0.2|
0.37,0.28,0.0063,0.13,0.21|
];
